(set-logic QF_BV)
(declare-fun _substvar_207_ () (_ BitVec 159))
(declare-fun _substvar_272_ () Bool)
(declare-fun _substvar_198_ () (_ BitVec 159))
(declare-fun _substvar_181_ () (_ BitVec 159))
(declare-fun _substvar_174_ () (_ BitVec 159))
(assert (and true true true true true true true true true true true true true true true true true true true true true true true true true true true true true true true true true true true true true true true true true true true true true true true true true true true true true true true true true true true true true true true true true true true true true true true true true true true true true true true true true true true true true true true true true true true true true true true true true true true true true true true true true true true true true true true true true true true true true true true true true true true true true true true true true true true true true true true true true true true true true true true true true true true true true true true true true true true true true true true true true true true true true true true true true true true true true true true true true true true true true true true true true true true true (= _substvar_174_ (_ bv0 159)) (ite _substvar_272_ (= _substvar_181_ (_ bv0 159)) (= _substvar_181_ (concat (_ bv0 158) (bvxor ((_ extract 158 158) _substvar_174_) (_ bv0 1))))) (= _substvar_207_ (concat ((_ extract 157 0) _substvar_181_) (bvxor ((_ extract 158 158) _substvar_181_) ((_ extract 127 127) _substvar_181_)))) (= _substvar_198_ (concat ((_ extract 157 0) _substvar_207_) (_ bv0 1))) true true true true true true true true true true (= (or false false false false false (= (_ bv0 159) _substvar_198_)) false)))
(check-sat)
(exit)
